language Essence 1.3

letting class be function(1 --> 1, 2 --> 1, 3 --> 1, 4 --> 1)
letting deck_length be 15
letting deck_width be 49
letting length be function(1 --> 13, 2 --> 4, 3 --> 8, 4 --> 1)
letting n_classes be 1
letting n_containers be 4
letting separation be function()
letting width be function(1 --> 26, 2 --> 7, 3 --> 8, 4 --> 29)
